#######################################
### Exact MIP solver for the HHCRSP ###
#######################################
-- Instance file: new-instances/HHCRSP_75_15_38_1.6_R_C.txt
-- Max threads: 4
-- Time limit: 999999 seconds
-- Use initial solution: No
Trivial flow violations prevented generating 19307 variables.
Model exported.
Version identifier: 20.1.0.0 | 2020-11-10 | 9bedb6d68
CPXPARAM_Threads                                 4
CPXPARAM_TimeLimit                               999999
Parallel mode: deterministic, using up to 4 threads for concurrent optimization:
 * Starting dual Simplex on 1 thread...
 * Starting Barrier on 3 threads...
Tried aggregator 1 time.
LP Presolve eliminated 3282 rows and 914 columns.
Reduced LP has 25546 rows, 24520 columns, and 268101 nonzeros.
Presolve time = 0.12 sec. (71.76 ticks)
Symmetry aggregator did 27701 additional substitutions.

Iteration log . . .
Iteration:     1   Dual objective     =             0.000000

Dual crossover.
  Dual:  Fixing 149 variables.
      148 DMoves:  Infeasibility  6.22017002e-14  Objective  9.23333333e+01
        0 DMoves:  Infeasibility  5.50670807e-14  Objective  9.23333333e+01
  Dual:  Pushed 9, exchanged 140.
  Primal:  Fixing 85 variables.
       84 PMoves:  Infeasibility  1.66533454e-16  Objective  9.23333333e+01
        0 PMoves:  Infeasibility  3.33066907e-16  Objective  9.23333333e+01
  Primal:  Pushed 52, exchanged 33.

Dual simplex solved model.


Solution status from MIP model:
-- Processing time: 0.213 sec.
-- Memory used: 87.1406 MB
-- Best bound: inf
-- Obj value: 92.3333
-- Gap: inf%
-- Total distance: 277
-- Total tardiness: 0
-- Largest tardiness: 0
